c   #vars: 42   #clauses: 175   #literals: 495
c 
p cnf 42 175
-1 -2 0
3 20 21 -40 0
-5 -6 0
-7 -8 0
-9 -10 0
-11 -12 0
28 -41 -42 0
4 -14 26 27 0
-14 -15 0
-16 -17 0
-18 -19 0
-20 -21 0
-22 -23 -37 -38 0
-22 -23 0
-24 -25 0
-26 -27 0
7 8 39 40 0
-29 -30 0
-31 -32 0
-33 -34 0
-35 -36 0
-37 -38 0
1 2 24 25 0
-39 -40 0
-41 -42 0
1 2 33 34 0
24 25 33 34 0
-2 -22 -23 -37 0
3 20 21 -30 0
-1 -24 0
-2 -25 0
-1 -29 0
-2 -30 0
-1 -33 0
-2 -34 0
13 -14 33 34 0
-1 -41 0
-2 -42 0
3 -27 29 30 0
-3 -20 0
-3 -26 0
5 6 39 40 0
-3 -29 0
-1 -2 37 38 0
-3 -39 0
5 6 35 36 0
11 12 26 27 0
13 14 15 -41 0
3 -21 26 27 0
3 -21 39 40 0
-4 -15 0
3 -27 39 40 0
-4 -19 0
16 17 35 36 0
3 -30 39 40 0
-4 -27 0
5 6 16 17 0
-5 -16 0
-6 -17 0
16 17 39 40 0
-5 -22 0
-6 -23 0
24 25 37 38 0
-5 -35 0
-6 -36 0
11 12 29 30 0
-5 -37 0
-6 -38 0
-9 28 41 42 0
-5 -39 0
-6 -40 0
3 26 27 -30 0
-7 -20 0
-8 -21 0
7 8 22 23 0
-7 -22 0
-8 -23 0
28 29 30 -41 0
-7 -24 0
-8 -25 0
26 27 37 38 0
-7 -31 0
-8 -32 0
1 2 -37 -38 0
-7 -35 0
-8 -36 0
-9 28 29 30 0
-7 -39 0
-8 -40 0
7 8 31 32 0
-9 -16 0
-10 -17 0
20 21 33 34 0
-9 -22 0
-10 -23 0
3 26 27 -40 0
13 -33 41 42 0
-10 -28 0
1 2 29 30 0
-9 -31 0
-10 -32 0
-11 -16 0
-12 -17 0
13 33 34 -41 0
-11 -20 0
-12 -21 0
-11 -26 0
-12 -27 0
1 2 41 42 0
-11 -29 0
-12 -30 0
14 15 31 32 0
4 -18 26 27 0
9 10 28 -41 0
9 10 31 32 0
26 27 41 42 0
9 10 28 -29 0
9 10 16 17 0
4 18 19 -26 0
-13 -15 0
4 -14 18 19 0
-13 -34 0
3 29 30 -40 0
4 14 15 -26 0
-13 -42 0
5 6 37 38 0
-26 -27 -33 -34 0
13 14 15 -33 0
-14 -31 0
-15 -32 0
18 19 33 34 0
-16 -35 0
-17 -36 0
7 8 20 21 0
-16 -39 0
-17 -40 0
9 10 22 23 0
11 12 20 21 0
-18 -31 0
-19 -32 0
18 19 41 42 0
-18 -33 0
-19 -34 0
22 23 29 30 0
-18 -41 0
-19 -42 0
5 6 22 23 0
-20 -33 0
-21 -34 0
3 -21 29 30 0
-1 -22 -23 -38 0
3 20 21 -27 0
22 23 35 36 0
7 8 35 36 0
-22 -29 0
-23 -30 0
11 12 16 17 0
-22 -35 0
-23 -36 0
28 -29 41 42 0
-24 -33 0
-25 -34 0
7 8 24 25 0
-24 -37 0
-25 -38 0
-1 -2 -22 -23 0
-26 -37 0
-27 -38 0
-26 -41 0
-27 -42 0
13 -14 41 42 0
-28 -30 0
18 19 31 32 0
4 14 15 -18 0
-28 -42 0
